171357.58,50.9,63.12
162969.37,53.52,66.37
169124.98,51.58,63.96
173223.06,50.35,62.44
171806.24,50.77,62.96
173682.55,50.22,62.28
166923.6,52.26,64.8
160938.55,54.2,67.21
153339.97,56.88,70.54
163945.05,53.2,65.98
158884.79,54.9,68.08
171175.83,50.96,63.19
147586.15,59.1,73.29
175217.46,49.78,61.73
165517.49,52.7,65.35
166245.84,52.47,65.06
166491.8,52.39,64.97
179307.6,48.65,60.33
178115.71,48.97,60.73
188596.37,46.25,57.35
